3 
4  52 
5  05 26 42 49 57 
6  04 12 22 30 37 44 52 59 
7  07 14 22 29 37 44 52 59 
8  07 14 22 29 37 44 52 59 
9  07 14 22 29 44 59 
10  14 29 44 59 
11  14 29 44 59 
12  14 29 44 59 
13  14 22 29 37 44 52 59 
14  07 14 22 29 37 44 52 59 
15  07 14 22 29 37 44 52 59 
16  07 14 22 29 37 44 52 59 
17  07 14 22 29 37 44 52 59 
18  07 14 22 29 37 44 52 59 
19  07 14 22 29 37 44 52 59 
20  07 22 37 52 
21  07 22 37 52 
22  07 22 37 55 
23 
